17	4
14	9	10	22	
0	0	0	0	0	3	2	3	4	
3	9	0	0	0	3	6	8	14	
1	0	0	0	10	2	7	17	
7	0	0	0	7	3	5	6	9	
1	0	0	0	2	3	15	17	17	
225	0	0	0	2	3	7	10	17	
225	0	0	0	1	3	13	15	17	
150	5	0	0	0	3	12	13	16	
125	0	6	0	0	2	11	15	
200	9	0	0	0	3	11	13	17	
250	0	8	0	0	3	17	17	17	
225	4	0	0	0	3	17	17	17	
1	0	2	0	0	2	17	17	
10	5	0	0	0	3	16	17	17	
5	5	0	0	0	3	17	17	17	
10	0	5	0	0	3	17	17	17	
0	0	0	0	0	0	
